--------------------------------------------------
s SATISFIABLE
benchmarks_SAT/INST_64x64/0/inst64x64_0_0.cnf : 5191 ms.
--------------------------------------------------
s SATISFIABLE
benchmarks_SAT/INST_64x64/0/inst64x64_0_10.cnf : 5380 ms.
--------------------------------------------------
s SATISFIABLE
benchmarks_SAT/INST_64x64/0/inst64x64_0_11.cnf : 5237 ms.
--------------------------------------------------
s SATISFIABLE
benchmarks_SAT/INST_64x64/0/inst64x64_0_12.cnf : 4966 ms.
--------------------------------------------------
s SATISFIABLE
benchmarks_SAT/INST_64x64/0/inst64x64_0_13.cnf : 5161 ms.
--------------------------------------------------
s SATISFIABLE
benchmarks_SAT/INST_64x64/0/inst64x64_0_14.cnf : 4774 ms.
--------------------------------------------------
s SATISFIABLE
benchmarks_SAT/INST_64x64/0/inst64x64_0_15.cnf : 4875 ms.
--------------------------------------------------
s SATISFIABLE
benchmarks_SAT/INST_64x64/0/inst64x64_0_16.cnf : 5089 ms.
--------------------------------------------------
s SATISFIABLE
benchmarks_SAT/INST_64x64/0/inst64x64_0_17.cnf : 4856 ms.
--------------------------------------------------
s SATISFIABLE
benchmarks_SAT/INST_64x64/0/inst64x64_0_18.cnf : 4992 ms.
--------------------------------------------------
s SATISFIABLE
benchmarks_SAT/INST_64x64/0/inst64x64_0_19.cnf : 5105 ms.
--------------------------------------------------
s SATISFIABLE
benchmarks_SAT/INST_64x64/0/inst64x64_0_1.cnf : 5180 ms.
--------------------------------------------------
s SATISFIABLE
benchmarks_SAT/INST_64x64/0/inst64x64_0_20.cnf : 4850 ms.
--------------------------------------------------
s SATISFIABLE
benchmarks_SAT/INST_64x64/0/inst64x64_0_21.cnf : 5062 ms.
--------------------------------------------------
s SATISFIABLE
benchmarks_SAT/INST_64x64/0/inst64x64_0_22.cnf : 4829 ms.
--------------------------------------------------
s SATISFIABLE
benchmarks_SAT/INST_64x64/0/inst64x64_0_23.cnf : 4972 ms.
--------------------------------------------------
s SATISFIABLE
benchmarks_SAT/INST_64x64/0/inst64x64_0_24.cnf : 4984 ms.
--------------------------------------------------
s SATISFIABLE
benchmarks_SAT/INST_64x64/0/inst64x64_0_25.cnf : 4791 ms.
--------------------------------------------------
s SATISFIABLE
benchmarks_SAT/INST_64x64/0/inst64x64_0_26.cnf : 4808 ms.
--------------------------------------------------
s SATISFIABLE
benchmarks_SAT/INST_64x64/0/inst64x64_0_27.cnf : 5230 ms.
--------------------------------------------------
s SATISFIABLE
benchmarks_SAT/INST_64x64/0/inst64x64_0_28.cnf : 4877 ms.
--------------------------------------------------
s SATISFIABLE
benchmarks_SAT/INST_64x64/0/inst64x64_0_29.cnf : 4813 ms.
--------------------------------------------------
s SATISFIABLE
benchmarks_SAT/INST_64x64/0/inst64x64_0_2.cnf : 5470 ms.
--------------------------------------------------
s SATISFIABLE
benchmarks_SAT/INST_64x64/0/inst64x64_0_30.cnf : 5231 ms.
--------------------------------------------------
s SATISFIABLE
benchmarks_SAT/INST_64x64/0/inst64x64_0_31.cnf : 4783 ms.
--------------------------------------------------
s SATISFIABLE
benchmarks_SAT/INST_64x64/0/inst64x64_0_32.cnf : 5240 ms.
--------------------------------------------------
s SATISFIABLE
benchmarks_SAT/INST_64x64/0/inst64x64_0_33.cnf : 5012 ms.
--------------------------------------------------
s SATISFIABLE
benchmarks_SAT/INST_64x64/0/inst64x64_0_34.cnf : 5093 ms.
--------------------------------------------------
s SATISFIABLE
benchmarks_SAT/INST_64x64/0/inst64x64_0_35.cnf : 5066 ms.
--------------------------------------------------
s SATISFIABLE
benchmarks_SAT/INST_64x64/0/inst64x64_0_36.cnf : 5145 ms.
--------------------------------------------------
s SATISFIABLE
benchmarks_SAT/INST_64x64/0/inst64x64_0_37.cnf : 4872 ms.
--------------------------------------------------
s SATISFIABLE
benchmarks_SAT/INST_64x64/0/inst64x64_0_38.cnf : 5242 ms.
--------------------------------------------------
s SATISFIABLE
benchmarks_SAT/INST_64x64/0/inst64x64_0_39.cnf : 5201 ms.
--------------------------------------------------
s SATISFIABLE
benchmarks_SAT/INST_64x64/0/inst64x64_0_3.cnf : 4709 ms.
--------------------------------------------------
s SATISFIABLE
benchmarks_SAT/INST_64x64/0/inst64x64_0_40.cnf : 4764 ms.
--------------------------------------------------
s SATISFIABLE
benchmarks_SAT/INST_64x64/0/inst64x64_0_41.cnf : 5257 ms.
--------------------------------------------------
s SATISFIABLE
benchmarks_SAT/INST_64x64/0/inst64x64_0_42.cnf : 4879 ms.
--------------------------------------------------
s SATISFIABLE
benchmarks_SAT/INST_64x64/0/inst64x64_0_43.cnf : 5267 ms.
--------------------------------------------------
s SATISFIABLE
benchmarks_SAT/INST_64x64/0/inst64x64_0_44.cnf : 4929 ms.
--------------------------------------------------
s SATISFIABLE
benchmarks_SAT/INST_64x64/0/inst64x64_0_45.cnf : 5075 ms.
--------------------------------------------------
s SATISFIABLE
benchmarks_SAT/INST_64x64/0/inst64x64_0_46.cnf : 5029 ms.
--------------------------------------------------
s SATISFIABLE
benchmarks_SAT/INST_64x64/0/inst64x64_0_47.cnf : 5051 ms.
--------------------------------------------------
s SATISFIABLE
benchmarks_SAT/INST_64x64/0/inst64x64_0_48.cnf : 5230 ms.
--------------------------------------------------
s SATISFIABLE
benchmarks_SAT/INST_64x64/0/inst64x64_0_49.cnf : 4961 ms.
--------------------------------------------------
s SATISFIABLE
benchmarks_SAT/INST_64x64/0/inst64x64_0_4.cnf : 4725 ms.
--------------------------------------------------
s SATISFIABLE
benchmarks_SAT/INST_64x64/0/inst64x64_0_50.cnf : 4795 ms.
--------------------------------------------------
s SATISFIABLE
benchmarks_SAT/INST_64x64/0/inst64x64_0_51.cnf : 5248 ms.
--------------------------------------------------
s SATISFIABLE
benchmarks_SAT/INST_64x64/0/inst64x64_0_52.cnf : 5208 ms.
--------------------------------------------------
s SATISFIABLE
benchmarks_SAT/INST_64x64/0/inst64x64_0_53.cnf : 5484 ms.
--------------------------------------------------
s SATISFIABLE
benchmarks_SAT/INST_64x64/0/inst64x64_0_54.cnf : 4958 ms.
--------------------------------------------------
s SATISFIABLE
benchmarks_SAT/INST_64x64/0/inst64x64_0_55.cnf : 5264 ms.
--------------------------------------------------
s SATISFIABLE
benchmarks_SAT/INST_64x64/0/inst64x64_0_56.cnf : 5236 ms.
--------------------------------------------------
s SATISFIABLE
benchmarks_SAT/INST_64x64/0/inst64x64_0_57.cnf : 4885 ms.
--------------------------------------------------
s SATISFIABLE
benchmarks_SAT/INST_64x64/0/inst64x64_0_58.cnf : 5160 ms.
--------------------------------------------------
s SATISFIABLE
benchmarks_SAT/INST_64x64/0/inst64x64_0_59.cnf : 5045 ms.
--------------------------------------------------
s SATISFIABLE
benchmarks_SAT/INST_64x64/0/inst64x64_0_5.cnf : 4999 ms.
--------------------------------------------------
s SATISFIABLE
benchmarks_SAT/INST_64x64/0/inst64x64_0_60.cnf : 5235 ms.
--------------------------------------------------
s SATISFIABLE
benchmarks_SAT/INST_64x64/0/inst64x64_0_61.cnf : 5079 ms.
--------------------------------------------------
s SATISFIABLE
benchmarks_SAT/INST_64x64/0/inst64x64_0_62.cnf : 5091 ms.
--------------------------------------------------
s SATISFIABLE
benchmarks_SAT/INST_64x64/0/inst64x64_0_63.cnf : 5167 ms.
--------------------------------------------------
s SATISFIABLE
benchmarks_SAT/INST_64x64/0/inst64x64_0_64.cnf : 4992 ms.
--------------------------------------------------
s SATISFIABLE
benchmarks_SAT/INST_64x64/0/inst64x64_0_65.cnf : 5150 ms.
--------------------------------------------------
s SATISFIABLE
benchmarks_SAT/INST_64x64/0/inst64x64_0_66.cnf : 5218 ms.
--------------------------------------------------
s SATISFIABLE
benchmarks_SAT/INST_64x64/0/inst64x64_0_67.cnf : 4795 ms.
--------------------------------------------------
s SATISFIABLE
benchmarks_SAT/INST_64x64/0/inst64x64_0_68.cnf : 4821 ms.
--------------------------------------------------
s SATISFIABLE
benchmarks_SAT/INST_64x64/0/inst64x64_0_69.cnf : 4679 ms.
--------------------------------------------------
s SATISFIABLE
benchmarks_SAT/INST_64x64/0/inst64x64_0_6.cnf : 5172 ms.
--------------------------------------------------
s SATISFIABLE
benchmarks_SAT/INST_64x64/0/inst64x64_0_70.cnf : 5027 ms.
--------------------------------------------------
s SATISFIABLE
benchmarks_SAT/INST_64x64/0/inst64x64_0_71.cnf : 5017 ms.
--------------------------------------------------
s SATISFIABLE
benchmarks_SAT/INST_64x64/0/inst64x64_0_72.cnf : 5304 ms.
--------------------------------------------------
s SATISFIABLE
benchmarks_SAT/INST_64x64/0/inst64x64_0_73.cnf : 4814 ms.
--------------------------------------------------
s SATISFIABLE
benchmarks_SAT/INST_64x64/0/inst64x64_0_74.cnf : 4685 ms.
--------------------------------------------------
s SATISFIABLE
benchmarks_SAT/INST_64x64/0/inst64x64_0_75.cnf : 5112 ms.
--------------------------------------------------
s SATISFIABLE
benchmarks_SAT/INST_64x64/0/inst64x64_0_76.cnf : 5090 ms.
--------------------------------------------------
s SATISFIABLE
benchmarks_SAT/INST_64x64/0/inst64x64_0_77.cnf : 5056 ms.
--------------------------------------------------
s SATISFIABLE
benchmarks_SAT/INST_64x64/0/inst64x64_0_78.cnf : 4710 ms.
--------------------------------------------------
s SATISFIABLE
benchmarks_SAT/INST_64x64/0/inst64x64_0_79.cnf : 5122 ms.
--------------------------------------------------
s SATISFIABLE
benchmarks_SAT/INST_64x64/0/inst64x64_0_7.cnf : 4807 ms.
--------------------------------------------------
s SATISFIABLE
benchmarks_SAT/INST_64x64/0/inst64x64_0_80.cnf : 5076 ms.
--------------------------------------------------
s SATISFIABLE
benchmarks_SAT/INST_64x64/0/inst64x64_0_81.cnf : 5227 ms.
--------------------------------------------------
s SATISFIABLE
benchmarks_SAT/INST_64x64/0/inst64x64_0_82.cnf : 5148 ms.
--------------------------------------------------
s SATISFIABLE
benchmarks_SAT/INST_64x64/0/inst64x64_0_83.cnf : 5321 ms.
--------------------------------------------------
s SATISFIABLE
benchmarks_SAT/INST_64x64/0/inst64x64_0_84.cnf : 5067 ms.
--------------------------------------------------
s SATISFIABLE
benchmarks_SAT/INST_64x64/0/inst64x64_0_85.cnf : 5103 ms.
--------------------------------------------------
s SATISFIABLE
benchmarks_SAT/INST_64x64/0/inst64x64_0_86.cnf : 5024 ms.
--------------------------------------------------
s SATISFIABLE
benchmarks_SAT/INST_64x64/0/inst64x64_0_87.cnf : 4947 ms.
--------------------------------------------------
s SATISFIABLE
benchmarks_SAT/INST_64x64/0/inst64x64_0_88.cnf : 4962 ms.
--------------------------------------------------
s SATISFIABLE
benchmarks_SAT/INST_64x64/0/inst64x64_0_89.cnf : 5414 ms.
--------------------------------------------------
s SATISFIABLE
benchmarks_SAT/INST_64x64/0/inst64x64_0_8.cnf : 5289 ms.
--------------------------------------------------
s SATISFIABLE
benchmarks_SAT/INST_64x64/0/inst64x64_0_90.cnf : 5070 ms.
--------------------------------------------------
s SATISFIABLE
benchmarks_SAT/INST_64x64/0/inst64x64_0_91.cnf : 5169 ms.
--------------------------------------------------
s SATISFIABLE
benchmarks_SAT/INST_64x64/0/inst64x64_0_92.cnf : 5113 ms.
--------------------------------------------------
s SATISFIABLE
benchmarks_SAT/INST_64x64/0/inst64x64_0_93.cnf : 4954 ms.
--------------------------------------------------
s SATISFIABLE
benchmarks_SAT/INST_64x64/0/inst64x64_0_94.cnf : 4984 ms.
--------------------------------------------------
s SATISFIABLE
benchmarks_SAT/INST_64x64/0/inst64x64_0_95.cnf : 5207 ms.
--------------------------------------------------
s SATISFIABLE
benchmarks_SAT/INST_64x64/0/inst64x64_0_96.cnf : 5063 ms.
--------------------------------------------------
s SATISFIABLE
benchmarks_SAT/INST_64x64/0/inst64x64_0_97.cnf : 5054 ms.
--------------------------------------------------
s SATISFIABLE
benchmarks_SAT/INST_64x64/0/inst64x64_0_98.cnf : 5048 ms.
--------------------------------------------------
s SATISFIABLE
benchmarks_SAT/INST_64x64/0/inst64x64_0_99.cnf : 5125 ms.
--------------------------------------------------
s SATISFIABLE
benchmarks_SAT/INST_64x64/0/inst64x64_0_9.cnf : 4917 ms.
